c Random 3-CNF over 150 variables and 30 clauses
c Generated with `cnfgen`
c (C) 2012-2018 Massimo Lauria <lauria.massimo@gmail.com>
c https://massimolauria.github.io/cnfgen
c
c COMMAND LINE: cnfgen -o 3/3_0.2000000000_31.cnf randkcnf 3 150 30
c
p cnf 150 30
-56 -81 -144 0
42 45 47 0
12 43 -106 0
31 -40 67 0
35 -117 -132 0
-19 -88 -105 0
54 83 100 0
15 -43 -144 0
-29 120 -138 0
10 26 -125 0
-54 -68 82 0
4 34 -87 0
-36 -53 110 0
61 98 -104 0
22 67 -113 0
-35 -72 -140 0
58 62 -150 0
-21 54 97 0
47 95 -146 0
-14 -37 71 0
-21 -23 28 0
83 -141 -145 0
-40 -51 137 0
-59 -122 -133 0
-10 77 -89 0
6 15 -73 0
-44 -51 -130 0
-26 53 -71 0
16 118 -145 0
-40 44 -137 0
